50 3
591
370
116
211
225
114
643
198
163
427
245
463
640
679
616
179
492
367
197
107
149
568
277
392
630
105
606
638
626
380
352
236
368
384
374
689
187
510
239
496
321
408
694
112
582
495
614
433
565
109
6393
8928
4261
